(declare-const term_to_project_onto1_integralized Int)
(declare-const term_to_project_onto0_integralized Int)
(declare-const term_to_project_onto2_integralized Int)
(declare-const term_to_project_onto_integralized Int)
(declare-const tmp Int)
(declare-const term_to_project_onto3_integralized Int)
(assert (exists
         ((|tmp'?1?1| Int) (|b'?2?2| Int) (|a'?3?3| Int) (phi_tmp?4?4 Int)
            (phi_tmp?5?5 Int) (phi_a?6?6 Int) (phi_a?7?7 Int) (phi_b?8?8 Int)
            (phi_a?9?9 Int) (phi_b?10?10 Int) (phi_a?11?11 Int)
            (|st'?12?12| Int) (|c'?13?13| Int) (K?14?14 Int)
            (|st'?15?15| Int) (|c'?16?16| Int) (st?17?17 Int) (b?18?18 Int)
            (a?19?19 Int) (last?20?20 Int) (c?21?21 Int))
         (and (<= (- st?17?17) 0) (<= (- b?18?18) 0) (<= (- a?19?19) 0)
                (<= (- c?21?21) 0) (= (+ (- |c'?13?13|) K?14?14) 0)
                (<= (+ |st'?12?12| -1) 0)
                (or (and (= K?14?14 0) (= (+ (- |st'?12?12|) 1) 0)
                           (= (- |c'?13?13|) 0))
                      (and (<= (+ (- K?14?14) 1) 0)
                             (<= (+ |c'?13?13| -200000) 0)
                             (<= (- |st'?12?12|) 0)
                             (<= (+ (- |c'?13?13|) 1) 0))) (<= (- K?14?14) 0)
                (<= (- |st'?12?12|) 0) (<= (- |c'?13?13|) 0)
                (<= (+ (- |c'?13?13|) 200000) 0)
                (or (and (= |st'?12?12| 0)
                           (or (and (or (<= (+ (- last?20?20) |c'?13?13|) 0)
                                          (<= (+ last?20?20 (- |c'?13?13|) 2) 0))
                                      (= (+ (- phi_a?11?11) a?19?19 2) 0)
                                      (= (+ (- phi_b?10?10) b?18?18 2) 0))
                                 (and (= (+ (- last?20?20) |c'?13?13| -1) 0)
                                        (= (+ (- phi_a?11?11) a?19?19 3) 0)
                                        (= (+ (- phi_b?10?10) b?18?18 3) 0)))
                           (= (+ (- phi_a?9?9) phi_a?11?11) 0)
                           (= (+ (- phi_b?8?8) phi_b?10?10) 0))
                      (and (or (<= (+ |st'?12?12| 1) 0)
                                 (<= (+ (- |st'?12?12|) 1) 0))
                             (= (+ (- phi_a?9?9) a?19?19 2) 0)
                             (= (+ (- phi_b?8?8) b?18?18 2) 0)))
                (or (and (= (+ (- last?20?20) |c'?13?13|) 0)
                           (or (and (or (<= (+ |st'?12?12| 1) 0)
                                          (<= (+ (- |st'?12?12|) 1) 0))
                                      (= (+ (- phi_a?7?7) phi_a?9?9) 0))
                                 (and (= |st'?12?12| 0)
                                        (= (+ (- phi_a?7?7) phi_a?9?9 1) 0)))
                           (= (+ (- phi_a?6?6) phi_a?7?7) 0))
                      (and (or (<= (+ (- last?20?20) |c'?13?13| 1) 0)
                                 (<= (+ last?20?20 (- |c'?13?13|) 1) 0))
                             (= (+ (- phi_a?6?6) phi_a?9?9) 0)))
                (or (and (= (+ phi_a?6?6 (- phi_b?8?8)) 0)
                           (or (and (or (<= (+ |c'?13?13| -199999) 0)
                                          (<= (+ (- |c'?13?13|) 200001) 0))
                                      (= (- phi_tmp?5?5) 0))
                                 (and (= (+ |c'?13?13| -200000) 0)
                                        (= (+ (- phi_tmp?5?5) 1) 0)))
                           (= (+ (- phi_tmp?4?4) phi_tmp?5?5) 0))
                      (and (or (<= (+ phi_a?6?6 (- phi_b?8?8) 1) 0)
                                 (<= (+ (- phi_a?6?6) phi_b?8?8 1) 0))
                             (= (- phi_tmp?4?4) 0)))
                (or (<= (+ phi_tmp?4?4 1) 0) (<= (+ (- phi_tmp?4?4) 1) 0))
                (= (+ |tmp'?1?1| (- phi_tmp?4?4)) 0)
                (= (+ |st'?15?15| (- |st'?12?12|)) 0)
                (= (+ |c'?16?16| (- |c'?13?13|)) 0)
                (= (+ |b'?2?2| (- phi_b?8?8)) 0)
                (= (+ |a'?3?3| (- phi_a?6?6)) 0)
                (= (+ term_to_project_onto3_integralized
                        (- (+ |a'?3?3| (- a?19?19)))) 0)
                (= (+ term_to_project_onto2_integralized
                        (- (+ |b'?2?2| (- b?18?18)))) 0)
                (= (+ term_to_project_onto1_integralized
                        (- (+ |c'?16?16| (- c?21?21)))) 0)
                (= (+ term_to_project_onto0_integralized
                        (- (+ |st'?15?15| (- st?17?17)))) 0)
                (= (+ term_to_project_onto_integralized
                        (- (+ |tmp'?1?1| (- tmp)))) 0))))